benchmarks_CP/INST_36x36/45/inst36x36_45_80.dzn
S=6;
start=[|
12,	22,	31,	26,	-1,	17,	3,	14,	-1,	30,	9,	-1,	33,	-1,	-1,	-1,	21,	5,	7,	-1,	28,	-1,	-1,	-1,	13,	-1,	-1,	8,	-1,	-1,	-1,	23,	29,	34,	-1,	1|
-1,	-1,	15,	7,	19,	-1,	27,	10,	-1,	22,	-1,	-1,	6,	3,	24,	-1,	-1,	-1,	35,	-1,	-1,	4,	-1,	-1,	-1,	30,	25,	-1,	-1,	23,	-1,	-1,	-1,	5,	21,	-1|
21,	29,	-1,	-1,	1,	-1,	17,	-1,	-1,	16,	-1,	15,	25,	36,	23,	-1,	22,	13,	-1,	-1,	-1,	-1,	-1,	-1,	-1,	32,	-1,	-1,	-1,	24,	-1,	7,	26,	-1,	-1,	-1|
-1,	-1,	-1,	5,	-1,	-1,	29,	13,	-1,	-1,	33,	26,	9,	16,	14,	19,	-1,	-1,	-1,	-1,	-1,	-1,	-1,	-1,	17,	-1,	7,	-1,	-1,	-1,	-1,	-1,	-1,	-1,	36,	-1|
-1,	-1,	14,	33,	-1,	-1,	-1,	-1,	-1,	2,	35,	24,	-1,	-1,	-1,	34,	-1,	-1,	-1,	1,	-1,	31,	30,	13,	-1,	5,	-1,	15,	-1,	29,	32,	28,	-1,	-1,	9,	10|
-1,	-1,	34,	-1,	-1,	16,	1,	19,	28,	4,	7,	5,	29,	35,	-1,	-1,	10,	27,	15,	-1,	-1,	-1,	24,	-1,	-1,	20,	-1,	14,	33,	9,	25,	-1,	30,	22,	17,	12|
26,	-1,	16,	-1,	-1,	-1,	6,	2,	-1,	-1,	14,	8,	-1,	-1,	35,	-1,	-1,	-1,	11,	-1,	-1,	-1,	20,	15,	-1,	-1,	30,	-1,	-1,	-1,	-1,	1,	3,	-1,	4,	33|
-1,	20,	32,	-1,	11,	-1,	-1,	-1,	27,	-1,	-1,	-1,	13,	30,	-1,	-1,	31,	-1,	-1,	-1,	-1,	-1,	-1,	1,	-1,	35,	26,	-1,	-1,	12,	9,	-1,	36,	25,	5,	29|
7,	8,	36,	-1,	-1,	31,	-1,	-1,	1,	29,	26,	-1,	-1,	27,	6,	-1,	-1,	-1,	28,	-1,	-1,	34,	22,	-1,	-1,	4,	-1,	-1,	-1,	-1,	30,	-1,	-1,	-1,	20,	-1|
14,	-1,	-1,	-1,	-1,	-1,	-1,	-1,	-1,	-1,	15,	-1,	-1,	-1,	16,	-1,	25,	36,	29,	-1,	-1,	13,	-1,	26,	-1,	-1,	24,	-1,	-1,	-1,	-1,	12,	-1,	-1,	-1,	-1|
6,	-1,	22,	1,	-1,	-1,	-1,	-1,	-1,	20,	31,	36,	32,	-1,	-1,	4,	-1,	10,	5,	12,	7,	-1,	-1,	23,	2,	-1,	-1,	-1,	-1,	-1,	-1,	27,	18,	16,	-1,	-1|
-1,	-1,	23,	35,	-1,	15,	10,	21,	5,	-1,	24,	-1,	1,	-1,	-1,	-1,	-1,	-1,	3,	18,	32,	19,	-1,	25,	-1,	-1,	14,	13,	-1,	36,	7,	22,	28,	-1,	-1,	6|
-1,	24,	27,	-1,	30,	-1,	25,	-1,	9,	-1,	-1,	21,	-1,	-1,	-1,	-1,	-1,	31,	33,	-1,	11,	-1,	-1,	-1,	5,	-1,	-1,	1,	-1,	4,	-1,	14,	34,	-1,	-1,	16|
20,	14,	13,	31,	17,	-1,	-1,	-1,	-1,	-1,	-1,	-1,	-1,	-1,	34,	-1,	-1,	-1,	-1,	-1,	16,	21,	-1,	-1,	-1,	-1,	32,	-1,	-1,	22,	5,	19,	33,	-1,	-1,	4|
-1,	-1,	3,	22,	33,	35,	-1,	4,	-1,	-1,	32,	-1,	20,	-1,	5,	-1,	12,	-1,	9,	-1,	27,	26,	-1,	-1,	8,	21,	-1,	-1,	19,	-1,	-1,	-1,	24,	-1,	-1,	25|
1,	-1,	26,	-1,	-1,	-1,	28,	8,	-1,	31,	16,	14,	4,	-1,	-1,	-1,	-1,	-1,	-1,	6,	34,	-1,	29,	-1,	30,	-1,	-1,	-1,	-1,	-1,	10,	32,	-1,	-1,	-1,	36|
-1,	-1,	29,	34,	-1,	-1,	-1,	-1,	6,	-1,	-1,	-1,	-1,	-1,	-1,	-1,	28,	1,	-1,	31,	14,	-1,	12,	19,	-1,	-1,	35,	36,	-1,	-1,	18,	-1,	8,	-1,	-1,	9|
9,	7,	-1,	-1,	-1,	-1,	34,	-1,	2,	-1,	13,	-1,	36,	23,	-1,	-1,	16,	32,	-1,	-1,	22,	-1,	8,	30,	-1,	-1,	-1,	-1,	-1,	-1,	27,	20,	21,	-1,	-1,	-1|
-1,	33,	-1,	-1,	-1,	29,	2,	35,	-1,	21,	17,	-1,	-1,	-1,	28,	-1,	20,	-1,	27,	32,	-1,	-1,	9,	12,	1,	14,	-1,	-1,	-1,	-1,	-1,	18,	-1,	7,	19,	22|
31,	-1,	-1,	24,	-1,	5,	-1,	16,	14,	19,	1,	9,	-1,	-1,	-1,	-1,	-1,	-1,	36,	34,	-1,	-1,	-1,	-1,	29,	12,	-1,	-1,	-1,	-1,	-1,	-1,	20,	28,	32,	-1|
-1,	17,	-1,	-1,	-1,	-1,	24,	6,	-1,	-1,	8,	-1,	-1,	7,	22,	-1,	36,	12,	26,	-1,	-1,	14,	-1,	20,	19,	-1,	28,	21,	32,	-1,	-1,	16,	-1,	30,	-1,	-1|
-1,	-1,	19,	14,	2,	1,	26,	20,	-1,	-1,	25,	-1,	-1,	24,	-1,	-1,	6,	-1,	8,	21,	18,	-1,	13,	-1,	34,	-1,	22,	-1,	-1,	-1,	33,	5,	17,	-1,	-1,	35|
-1,	-1,	-1,	-1,	36,	26,	-1,	29,	-1,	-1,	-1,	31,	-1,	-1,	1,	-1,	-1,	21,	22,	3,	15,	-1,	-1,	-1,	-1,	-1,	-1,	24,	-1,	-1,	6,	-1,	-1,	27,	-1,	-1|
30,	21,	7,	-1,	27,	32,	-1,	5,	36,	34,	22,	-1,	-1,	13,	-1,	-1,	-1,	-1,	16,	-1,	31,	25,	10,	6,	11,	-1,	3,	20,	-1,	-1,	1,	4,	9,	-1,	24,	-1|
-1,	10,	33,	-1,	-1,	2,	7,	15,	-1,	-1,	3,	-1,	35,	20,	12,	-1,	-1,	-1,	-1,	5,	23,	32,	-1,	8,	-1,	-1,	-1,	-1,	34,	-1,	22,	-1,	-1,	-1,	13,	28|
19,	-1,	21,	-1,	34,	-1,	-1,	36,	-1,	-1,	-1,	10,	-1,	-1,	7,	-1,	-1,	8,	-1,	-1,	-1,	-1,	-1,	-1,	-1,	1,	2,	-1,	-1,	27,	23,	24,	6,	20,	-1,	32|
-1,	1,	-1,	-1,	-1,	-1,	-1,	-1,	19,	9,	-1,	-1,	21,	33,	17,	-1,	-1,	16,	-1,	15,	-1,	-1,	-1,	10,	24,	31,	23,	25,	-1,	-1,	-1,	26,	-1,	4,	30,	8|
-1,	-1,	11,	13,	-1,	-1,	-1,	-1,	-1,	-1,	-1,	30,	-1,	-1,	9,	-1,	1,	14,	-1,	-1,	19,	-1,	-1,	-1,	36,	-1,	-1,	-1,	3,	8,	-1,	-1,	-1,	18,	10,	27|
-1,	-1,	28,	-1,	31,	8,	5,	-1,	-1,	26,	23,	20,	-1,	-1,	-1,	27,	-1,	29,	-1,	7,	36,	1,	-1,	9,	-1,	22,	-1,	-1,	14,	32,	11,	3,	2,	-1,	-1,	19|
24,	35,	-1,	36,	16,	22,	-1,	-1,	33,	-1,	-1,	-1,	-1,	4,	-1,	28,	23,	-1,	-1,	-1,	21,	-1,	-1,	3,	10,	13,	-1,	-1,	-1,	19,	31,	-1,	12,	-1,	-1,	17|
33,	-1,	-1,	-1,	10,	-1,	-1,	-1,	24,	36,	-1,	-1,	-1,	-1,	-1,	-1,	-1,	-1,	25,	9,	-1,	15,	26,	4,	-1,	-1,	-1,	-1,	6,	11,	21,	-1,	-1,	13,	18,	-1|
35,	-1,	-1,	-1,	-1,	36,	16,	9,	23,	32,	29,	17,	12,	-1,	-1,	-1,	5,	25,	-1,	14,	13,	-1,	-1,	-1,	-1,	-1,	-1,	-1,	18,	-1,	28,	-1,	-1,	11,	22,	-1|
-1,	-1,	1,	6,	-1,	3,	31,	28,	-1,	-1,	27,	2,	17,	-1,	4,	-1,	-1,	-1,	-1,	-1,	-1,	-1,	36,	22,	-1,	24,	15,	-1,	-1,	-1,	20,	-1,	-1,	-1,	-1,	7|
-1,	-1,	2,	-1,	-1,	-1,	8,	1,	26,	-1,	34,	-1,	16,	-1,	13,	10,	24,	-1,	-1,	-1,	20,	7,	-1,	11,	-1,	-1,	-1,	-1,	-1,	14,	12,	36,	-1,	-1,	-1,	30|
22,	13,	-1,	-1,	7,	-1,	-1,	-1,	15,	-1,	21,	6,	-1,	1,	-1,	31,	-1,	-1,	-1,	-1,	12,	2,	28,	29,	33,	-1,	-1,	-1,	-1,	-1,	-1,	17,	35,	10,	16,	-1|
29,	25,	-1,	32,	-1,	-1,	14,	33,	20,	-1,	11,	-1,	-1,	-1,	36,	-1,	35,	-1,	31,	16,	-1,	-1,	-1,	-1,	-1,	19,	17,	-1,	-1,	10,	26,	-1,	-1,	-1,	-1,	24|];
